/*********************************************
 * OPL 12.6.0.0 Data
 * Author: Adrian Rodriguez Bazaga, Pau Rodriguez Esmerats
 * Creation Date: 09/12/2017 at 00:42:43
 *********************************************/

maxConsec=9;
maxPresence=13;
maxHours=8;
minHours=5;
hours=16;
demand= [15 16 16 16 16 13 16 15 16 4 3 2 1 0 0 0  ];
nNurses=18;
